
  22   10
  10   10   10   10   10   10   10   10   10   10

   0   0   0   0   0   0   0   0   0   0   0   5 2 8 19 20 21 
   8  10  10  10  10  10  10  10  10  10  10   4 18 16 5 3 
   1  10  10  10  10  10  10  10  10  10  10   2 17 4 
   3  10  10  10  10  10  10  10  10  10  10   4 15 11 9 6 
   5  10  10  10  10  10  10  10  10  10  10   3 14 11 10 
   8  10  10  10  10  10  10  10  10  10  10   1 7 
   9  10  10  10  10  10  10  10  10  10  10   3 14 13 12 
  10  10  10  10  10  10  10  10  10  10  10   2 16 10 
  10  10  10  10  10  10  10  10  10  10  10   1 10 
   4  10  10  10  10  10  10  10  10  10  10   1 12 
   9  10  10  10  10  10  10  10  10  10  10   1 13 
   7  10  10  10  10  10  10  10  10  10  10   1 22
   9  10  10  10  10  10  10  10  10  10  10   1 22
   3  10  10  10  10  10  10  10  10  10  10   1 22
   7  10  10  10  10  10  10  10  10  10  10   1 22
   4  10  10  10  10  10  10  10  10  10  10   1 22
   7  10  10  10  10  10  10  10  10  10  10   1 22
   4  10  10  10  10  10  10  10  10  10  10   1 22
   9  10  10  10  10  10  10  10  10  10  10   1 22
   2  10  10  10  10  10  10  10  10  10  10   1 22
   1  10  10  10  10  10  10  10  10  10  10   1 22
   0   0   0   0   0   0   0   0   0   0   0   0 
